p cnf 472 1294
-42 -20 0
-42 24 0
42 20 -24 0
-43 20 0
-43 -24 0
43 -20 24 0
-44 -42 0
-44 -43 0
44 42 43 0
-45 -28 0
-45 32 0
45 28 -32 0
-46 28 0
-46 -32 0
46 -28 32 0
-47 -45 0
-47 -46 0
47 45 46 0
-48 44 0
-48 -47 0
48 -44 47 0
-49 -44 0
-49 47 0
49 44 -47 0
-50 -48 0
-50 -49 0
50 48 49 0
-51 40 0
-51 41 0
51 -40 -41 0
-52 -5 0
-52 6 0
52 5 -6 0
-53 5 0
-53 -6 0
53 -5 6 0
-54 -52 0
-54 -53 0
54 52 53 0
-55 -7 0
-55 8 0
55 7 -8 0
-56 7 0
-56 -8 0
56 -7 8 0
-57 -55 0
-57 -56 0
57 55 56 0
-58 54 0
-58 -57 0
58 -54 57 0
-59 -54 0
-59 57 0
59 54 -57 0
-60 -58 0
-60 -59 0
60 58 59 0
-61 -13 0
-61 14 0
61 13 -14 0
-62 13 0
-62 -14 0
62 -13 14 0
-63 -61 0
-63 -62 0
63 61 62 0
-64 -15 0
-64 16 0
64 15 -16 0
-65 15 0
-65 -16 0
65 -15 16 0
-66 -64 0
-66 -65 0
66 64 65 0
-67 63 0
-67 -66 0
67 -63 66 0
-68 -63 0
-68 66 0
68 63 -66 0
-69 -67 0
-69 -68 0
69 67 68 0
-70 60 0
-70 -69 0
70 -60 69 0
-71 -60 0
-71 69 0
71 60 -69 0
-72 -70 0
-72 -71 0
72 70 71 0
-73 -51 0
-73 -72 0
73 51 72 0
-74 51 0
-74 72 0
74 -51 -72 0
-75 -73 0
-75 -74 0
75 73 74 0
-76 50 0
-76 -75 0
76 -50 75 0
-77 -50 0
-77 75 0
77 50 -75 0
-78 -76 0
-78 -77 0
78 76 77 0
-79 -19 0
-79 23 0
79 19 -23 0
-80 19 0
-80 -23 0
80 -19 23 0
-81 -79 0
-81 -80 0
81 79 80 0
-82 -27 0
-82 31 0
82 27 -31 0
-83 27 0
-83 -31 0
83 -27 31 0
-84 -82 0
-84 -83 0
84 82 83 0
-85 81 0
-85 -84 0
85 -81 84 0
-86 -81 0
-86 84 0
86 81 -84 0
-87 -85 0
-87 -86 0
87 85 86 0
-88 39 0
-88 41 0
88 -39 -41 0
-89 -1 0
-89 2 0
89 1 -2 0
-90 1 0
-90 -2 0
90 -1 2 0
-91 -89 0
-91 -90 0
91 89 90 0
-92 -3 0
-92 4 0
92 3 -4 0
-93 3 0
-93 -4 0
93 -3 4 0
-94 -92 0
-94 -93 0
94 92 93 0
-95 91 0
-95 -94 0
95 -91 94 0
-96 -91 0
-96 94 0
96 91 -94 0
-97 -95 0
-97 -96 0
97 95 96 0
-98 -9 0
-98 10 0
98 9 -10 0
-99 9 0
-99 -10 0
99 -9 10 0
-100 -98 0
-100 -99 0
100 98 99 0
-101 -11 0
-101 12 0
101 11 -12 0
-102 11 0
-102 -12 0
102 -11 12 0
-103 -101 0
-103 -102 0
103 101 102 0
-104 100 0
-104 -103 0
104 -100 103 0
-105 -100 0
-105 103 0
105 100 -103 0
-106 -104 0
-106 -105 0
106 104 105 0
-107 97 0
-107 -106 0
107 -97 106 0
-108 -97 0
-108 106 0
108 97 -106 0
-109 -107 0
-109 -108 0
109 107 108 0
-110 -88 0
-110 -109 0
110 88 109 0
-111 88 0
-111 109 0
111 -88 -109 0
-112 -110 0
-112 -111 0
112 110 111 0
-113 87 0
-113 -112 0
113 -87 112 0
-114 -87 0
-114 112 0
114 87 -112 0
-115 -113 0
-115 -114 0
115 113 114 0
-116 -17 0
-116 21 0
116 17 -21 0
-117 17 0
-117 -21 0
117 -17 21 0
-118 -116 0
-118 -117 0
118 116 117 0
-119 -25 0
-119 29 0
119 25 -29 0
-120 25 0
-120 -29 0
120 -25 29 0
-121 -119 0
-121 -120 0
121 119 120 0
-122 118 0
-122 -121 0
122 -118 121 0
-123 -118 0
-123 121 0
123 118 -121 0
-124 -122 0
-124 -123 0
124 122 123 0
-125 37 0
-125 41 0
125 -37 -41 0
-126 -60 0
-126 97 0
126 60 -97 0
-127 60 0
-127 -97 0
127 -60 97 0
-128 -126 0
-128 -127 0
128 126 127 0
-129 -125 0
-129 -128 0
129 125 128 0
-130 125 0
-130 128 0
130 -125 -128 0
-131 -129 0
-131 -130 0
131 129 130 0
-132 124 0
-132 -131 0
132 -124 131 0
-133 -124 0
-133 131 0
133 124 -131 0
-134 -132 0
-134 -133 0
134 132 133 0
-135 -18 0
-135 22 0
135 18 -22 0
-136 18 0
-136 -22 0
136 -18 22 0
-137 -135 0
-137 -136 0
137 135 136 0
-138 -26 0
-138 30 0
138 26 -30 0
-139 26 0
-139 -30 0
139 -26 30 0
-140 -138 0
-140 -139 0
140 138 139 0
-141 137 0
-141 -140 0
141 -137 140 0
-142 -137 0
-142 140 0
142 137 -140 0
-143 -141 0
-143 -142 0
143 141 142 0
-144 38 0
-144 41 0
144 -38 -41 0
-145 -69 0
-145 106 0
145 69 -106 0
-146 69 0
-146 -106 0
146 -69 106 0
-147 -145 0
-147 -146 0
147 145 146 0
-148 -144 0
-148 -147 0
148 144 147 0
-149 144 0
-149 147 0
149 -144 -147 0
-150 -148 0
-150 -149 0
150 148 149 0
-151 143 0
-151 -150 0
151 -143 150 0
-152 -143 0
-152 150 0
152 143 -150 0
-153 -151 0
-153 -152 0
153 151 152 0
-154 -134 0
-154 153 0
154 134 -153 0
-155 115 0
-155 154 0
155 -115 -154 0
-156 78 0
-156 155 0
156 -78 -155 0
-157 134 0
-157 -153 0
157 -134 153 0
-158 115 0
-158 157 0
158 -115 -157 0
-159 78 0
-159 158 0
159 -78 -158 0
-160 134 0
-160 153 0
160 -134 -153 0
-161 115 0
-161 160 0
161 -115 -160 0
-162 -78 0
-162 161 0
162 78 -161 0
-163 -115 0
-163 160 0
163 115 -160 0
-164 78 0
-164 163 0
164 -78 -163 0
-165 -162 0
-165 -164 0
165 162 164 0
-166 -159 0
-166 165 0
166 159 -165 0
-167 -156 0
-167 166 0
167 156 -166 0
-168 -4 0
-168 8 0
168 4 -8 0
-169 4 0
-169 -8 0
169 -4 8 0
-170 -168 0
-170 -169 0
170 168 169 0
-171 -12 0
-171 16 0
171 12 -16 0
-172 12 0
-172 -16 0
172 -12 16 0
-173 -171 0
-173 -172 0
173 171 172 0
-174 170 0
-174 -173 0
174 -170 173 0
-175 -170 0
-175 173 0
175 170 -173 0
-176 -174 0
-176 -175 0
176 174 175 0
-177 36 0
-177 41 0
177 -36 -41 0
-178 -21 0
-178 22 0
178 21 -22 0
-179 21 0
-179 -22 0
179 -21 22 0
-180 -178 0
-180 -179 0
180 178 179 0
-181 -23 0
-181 24 0
181 23 -24 0
-182 23 0
-182 -24 0
182 -23 24 0
-183 -181 0
-183 -182 0
183 181 182 0
-184 180 0
-184 -183 0
184 -180 183 0
-185 -180 0
-185 183 0
185 180 -183 0
-186 -184 0
-186 -185 0
186 184 185 0
-187 -29 0
-187 30 0
187 29 -30 0
-188 29 0
-188 -30 0
188 -29 30 0
-189 -187 0
-189 -188 0
189 187 188 0
-190 -31 0
-190 32 0
190 31 -32 0
-191 31 0
-191 -32 0
191 -31 32 0
-192 -190 0
-192 -191 0
192 190 191 0
-193 189 0
-193 -192 0
193 -189 192 0
-194 -189 0
-194 192 0
194 189 -192 0
-195 -193 0
-195 -194 0
195 193 194 0
-196 186 0
-196 -195 0
196 -186 195 0
-197 -186 0
-197 195 0
197 186 -195 0
-198 -196 0
-198 -197 0
198 196 197 0
-199 -177 0
-199 -198 0
199 177 198 0
-200 177 0
-200 198 0
200 -177 -198 0
-201 -199 0
-201 -200 0
201 199 200 0
-202 176 0
-202 -201 0
202 -176 201 0
-203 -176 0
-203 201 0
203 176 -201 0
-204 -202 0
-204 -203 0
204 202 203 0
-205 -3 0
-205 7 0
205 3 -7 0
-206 3 0
-206 -7 0
206 -3 7 0
-207 -205 0
-207 -206 0
207 205 206 0
-208 -11 0
-208 15 0
208 11 -15 0
-209 11 0
-209 -15 0
209 -11 15 0
-210 -208 0
-210 -209 0
210 208 209 0
-211 207 0
-211 -210 0
211 -207 210 0
-212 -207 0
-212 210 0
212 207 -210 0
-213 -211 0
-213 -212 0
213 211 212 0
-214 35 0
-214 41 0
214 -35 -41 0
-215 -17 0
-215 18 0
215 17 -18 0
-216 17 0
-216 -18 0
216 -17 18 0
-217 -215 0
-217 -216 0
217 215 216 0
-218 -19 0
-218 20 0
218 19 -20 0
-219 19 0
-219 -20 0
219 -19 20 0
-220 -218 0
-220 -219 0
220 218 219 0
-221 217 0
-221 -220 0
221 -217 220 0
-222 -217 0
-222 220 0
222 217 -220 0
-223 -221 0
-223 -222 0
223 221 222 0
-224 -25 0
-224 26 0
224 25 -26 0
-225 25 0
-225 -26 0
225 -25 26 0
-226 -224 0
-226 -225 0
226 224 225 0
-227 -27 0
-227 28 0
227 27 -28 0
-228 27 0
-228 -28 0
228 -27 28 0
-229 -227 0
-229 -228 0
229 227 228 0
-230 226 0
-230 -229 0
230 -226 229 0
-231 -226 0
-231 229 0
231 226 -229 0
-232 -230 0
-232 -231 0
232 230 231 0
-233 223 0
-233 -232 0
233 -223 232 0
-234 -223 0
-234 232 0
234 223 -232 0
-235 -233 0
-235 -234 0
235 233 234 0
-236 -214 0
-236 -235 0
236 214 235 0
-237 214 0
-237 235 0
237 -214 -235 0
-238 -236 0
-238 -237 0
238 236 237 0
-239 213 0
-239 -238 0
239 -213 238 0
-240 -213 0
-240 238 0
240 213 -238 0
-241 -239 0
-241 -240 0
241 239 240 0
-242 -1 0
-242 5 0
242 1 -5 0
-243 1 0
-243 -5 0
243 -1 5 0
-244 -242 0
-244 -243 0
244 242 243 0
-245 -9 0
-245 13 0
245 9 -13 0
-246 9 0
-246 -13 0
246 -9 13 0
-247 -245 0
-247 -246 0
247 245 246 0
-248 244 0
-248 -247 0
248 -244 247 0
-249 -244 0
-249 247 0
249 244 -247 0
-250 -248 0
-250 -249 0
250 248 249 0
-251 33 0
-251 41 0
251 -33 -41 0
-252 -186 0
-252 223 0
252 186 -223 0
-253 186 0
-253 -223 0
253 -186 223 0
-254 -252 0
-254 -253 0
254 252 253 0
-255 -251 0
-255 -254 0
255 251 254 0
-256 251 0
-256 254 0
256 -251 -254 0
-257 -255 0
-257 -256 0
257 255 256 0
-258 250 0
-258 -257 0
258 -250 257 0
-259 -250 0
-259 257 0
259 250 -257 0
-260 -258 0
-260 -259 0
260 258 259 0
-261 -2 0
-261 6 0
261 2 -6 0
-262 2 0
-262 -6 0
262 -2 6 0
-263 -261 0
-263 -262 0
263 261 262 0
-264 -10 0
-264 14 0
264 10 -14 0
-265 10 0
-265 -14 0
265 -10 14 0
-266 -264 0
-266 -265 0
266 264 265 0
-267 263 0
-267 -266 0
267 -263 266 0
-268 -263 0
-268 266 0
268 263 -266 0
-269 -267 0
-269 -268 0
269 267 268 0
-270 34 0
-270 41 0
270 -34 -41 0
-271 -195 0
-271 232 0
271 195 -232 0
-272 195 0
-272 -232 0
272 -195 232 0
-273 -271 0
-273 -272 0
273 271 272 0
-274 -270 0
-274 -273 0
274 270 273 0
-275 270 0
-275 273 0
275 -270 -273 0
-276 -274 0
-276 -275 0
276 274 275 0
-277 269 0
-277 -276 0
277 -269 276 0
-278 -269 0
-278 276 0
278 269 -276 0
-279 -277 0
-279 -278 0
279 277 278 0
-280 260 0
-280 -279 0
280 -260 279 0
-281 241 0
-281 280 0
281 -241 -280 0
-282 -204 0
-282 281 0
282 204 -281 0
-283 -167 0
-283 282 0
283 167 -282 0
-284 -78 0
-284 283 0
284 78 -283 0
-285 -32 0
-285 284 0
285 32 -284 0
-286 32 0
-286 -284 0
286 -32 284 0
-287 -285 0
-287 -286 0
287 285 286 0
-288 -115 0
-288 283 0
288 115 -283 0
-289 -31 0
-289 288 0
289 31 -288 0
-290 31 0
-290 -288 0
290 -31 288 0
-291 -289 0
-291 -290 0
291 289 290 0
-292 -153 0
-292 283 0
292 153 -283 0
-293 -30 0
-293 292 0
293 30 -292 0
-294 30 0
-294 -292 0
294 -30 292 0
-295 -293 0
-295 -294 0
295 293 294 0
-296 -134 0
-296 283 0
296 134 -283 0
-297 -29 0
-297 296 0
297 29 -296 0
-298 29 0
-298 -296 0
298 -29 296 0
-299 -297 0
-299 -298 0
299 297 298 0
-300 -241 0
-300 280 0
300 241 -280 0
-301 204 0
-301 300 0
301 -204 -300 0
-302 -167 0
-302 301 0
302 167 -301 0
-303 -78 0
-303 302 0
303 78 -302 0
-304 -28 0
-304 303 0
304 28 -303 0
-305 28 0
-305 -303 0
305 -28 303 0
-306 -304 0
-306 -305 0
306 304 305 0
-307 -115 0
-307 302 0
307 115 -302 0
-308 -27 0
-308 307 0
308 27 -307 0
-309 27 0
-309 -307 0
309 -27 307 0
-310 -308 0
-310 -309 0
310 308 309 0
-311 -153 0
-311 302 0
311 153 -302 0
-312 -26 0
-312 311 0
312 26 -311 0
-313 26 0
-313 -311 0
313 -26 311 0
-314 -312 0
-314 -313 0
314 312 313 0
-315 -134 0
-315 302 0
315 134 -302 0
-316 -25 0
-316 315 0
316 25 -315 0
-317 25 0
-317 -315 0
317 -25 315 0
-318 -316 0
-318 -317 0
318 316 317 0
-319 -260 0
-319 279 0
319 260 -279 0
-320 241 0
-320 319 0
320 -241 -319 0
-321 -204 0
-321 320 0
321 204 -320 0
-322 -167 0
-322 321 0
322 167 -321 0
-323 -78 0
-323 322 0
323 78 -322 0
-324 -24 0
-324 323 0
324 24 -323 0
-325 24 0
-325 -323 0
325 -24 323 0
-326 -324 0
-326 -325 0
326 324 325 0
-327 -115 0
-327 322 0
327 115 -322 0
-328 -23 0
-328 327 0
328 23 -327 0
-329 23 0
-329 -327 0
329 -23 327 0
-330 -328 0
-330 -329 0
330 328 329 0
-331 -153 0
-331 322 0
331 153 -322 0
-332 -22 0
-332 331 0
332 22 -331 0
-333 22 0
-333 -331 0
333 -22 331 0
-334 -332 0
-334 -333 0
334 332 333 0
-335 -134 0
-335 322 0
335 134 -322 0
-336 -21 0
-336 335 0
336 21 -335 0
-337 21 0
-337 -335 0
337 -21 335 0
-338 -336 0
-338 -337 0
338 336 337 0
-339 -241 0
-339 319 0
339 241 -319 0
-340 204 0
-340 339 0
340 -204 -339 0
-341 -167 0
-341 340 0
341 167 -340 0
-342 -78 0
-342 341 0
342 78 -341 0
-343 -20 0
-343 342 0
343 20 -342 0
-344 20 0
-344 -342 0
344 -20 342 0
-345 -343 0
-345 -344 0
345 343 344 0
-346 -115 0
-346 341 0
346 115 -341 0
-347 -19 0
-347 346 0
347 19 -346 0
-348 19 0
-348 -346 0
348 -19 346 0
-349 -347 0
-349 -348 0
349 347 348 0
-350 -153 0
-350 341 0
350 153 -341 0
-351 -18 0
-351 350 0
351 18 -350 0
-352 18 0
-352 -350 0
352 -18 350 0
-353 -351 0
-353 -352 0
353 351 352 0
-354 -134 0
-354 341 0
354 134 -341 0
-355 -17 0
-355 354 0
355 17 -354 0
-356 17 0
-356 -354 0
356 -17 354 0
-357 -355 0
-357 -356 0
357 355 356 0
-358 204 0
-358 320 0
358 -204 -320 0
-359 204 0
-359 281 0
359 -204 -281 0
-360 260 0
-360 279 0
360 -260 -279 0
-361 241 0
-361 360 0
361 -241 -360 0
-362 -204 0
-362 361 0
362 204 -361 0
-363 -241 0
-363 360 0
363 241 -360 0
-364 204 0
-364 363 0
364 -204 -363 0
-365 -362 0
-365 -364 0
365 362 364 0
-366 -359 0
-366 365 0
366 359 -365 0
-367 -358 0
-367 366 0
367 358 -366 0
-368 -78 0
-368 158 0
368 78 -158 0
-369 -367 0
-369 368 0
369 367 -368 0
-370 -204 0
-370 369 0
370 204 -369 0
-371 -16 0
-371 370 0
371 16 -370 0
-372 16 0
-372 -370 0
372 -16 370 0
-373 -371 0
-373 -372 0
373 371 372 0
-374 -241 0
-374 369 0
374 241 -369 0
-375 -15 0
-375 374 0
375 15 -374 0
-376 15 0
-376 -374 0
376 -15 374 0
-377 -375 0
-377 -376 0
377 375 376 0
-378 -279 0
-378 369 0
378 279 -369 0
-379 -14 0
-379 378 0
379 14 -378 0
-380 14 0
-380 -378 0
380 -14 378 0
-381 -379 0
-381 -380 0
381 379 380 0
-382 -260 0
-382 369 0
382 260 -369 0
-383 -13 0
-383 382 0
383 13 -382 0
-384 13 0
-384 -382 0
384 -13 382 0
-385 -383 0
-385 -384 0
385 383 384 0
-386 -115 0
-386 157 0
386 115 -157 0
-387 78 0
-387 386 0
387 -78 -386 0
-388 -367 0
-388 387 0
388 367 -387 0
-389 -204 0
-389 388 0
389 204 -388 0
-390 -12 0
-390 389 0
390 12 -389 0
-391 12 0
-391 -389 0
391 -12 389 0
-392 -390 0
-392 -391 0
392 390 391 0
-393 -241 0
-393 388 0
393 241 -388 0
-394 -11 0
-394 393 0
394 11 -393 0
-395 11 0
-395 -393 0
395 -11 393 0
-396 -394 0
-396 -395 0
396 394 395 0
-397 -279 0
-397 388 0
397 279 -388 0
-398 -10 0
-398 397 0
398 10 -397 0
-399 10 0
-399 -397 0
399 -10 397 0
-400 -398 0
-400 -399 0
400 398 399 0
-401 -260 0
-401 388 0
401 260 -388 0
-402 -9 0
-402 401 0
402 9 -401 0
-403 9 0
-403 -401 0
403 -9 401 0
-404 -402 0
-404 -403 0
404 402 403 0
-405 -78 0
-405 155 0
405 78 -155 0
-406 -367 0
-406 405 0
406 367 -405 0
-407 -204 0
-407 406 0
407 204 -406 0
-408 -8 0
-408 407 0
408 8 -407 0
-409 8 0
-409 -407 0
409 -8 407 0
-410 -408 0
-410 -409 0
410 408 409 0
-411 -241 0
-411 406 0
411 241 -406 0
-412 -7 0
-412 411 0
412 7 -411 0
-413 7 0
-413 -411 0
413 -7 411 0
-414 -412 0
-414 -413 0
414 412 413 0
-415 -279 0
-415 406 0
415 279 -406 0
-416 -6 0
-416 415 0
416 6 -415 0
-417 6 0
-417 -415 0
417 -6 415 0
-418 -416 0
-418 -417 0
418 416 417 0
-419 -260 0
-419 406 0
419 260 -406 0
-420 -5 0
-420 419 0
420 5 -419 0
-421 5 0
-421 -419 0
421 -5 419 0
-422 -420 0
-422 -421 0
422 420 421 0
-423 -115 0
-423 154 0
423 115 -154 0
-424 78 0
-424 423 0
424 -78 -423 0
-425 -367 0
-425 424 0
425 367 -424 0
-426 -204 0
-426 425 0
426 204 -425 0
-427 -4 0
-427 426 0
427 4 -426 0
-428 4 0
-428 -426 0
428 -4 426 0
-429 -427 0
-429 -428 0
429 427 428 0
-430 -241 0
-430 425 0
430 241 -425 0
-431 -3 0
-431 430 0
431 3 -430 0
-432 3 0
-432 -430 0
432 -3 430 0
-433 -431 0
-433 -432 0
433 431 432 0
-434 -260 0
-434 425 0
434 260 -425 0
-435 -1 0
-435 434 0
435 1 -434 0
-436 1 0
-436 -434 0
436 -1 434 0
-437 -435 0
-437 -436 0
437 435 436 0
-438 -279 0
-438 425 0
438 279 -425 0
-439 -2 0
-439 438 0
439 2 -438 0
-440 2 0
-440 -438 0
440 -2 438 0
-441 -439 0
-441 -440 0
441 439 440 0
-442 437 0
-442 441 0
442 -437 -441 0
-443 433 0
-443 442 0
443 -433 -442 0
-444 429 0
-444 443 0
444 -429 -443 0
-445 422 0
-445 444 0
445 -422 -444 0
-446 418 0
-446 445 0
446 -418 -445 0
-447 414 0
-447 446 0
447 -414 -446 0
-448 410 0
-448 447 0
448 -410 -447 0
-449 404 0
-449 448 0
449 -404 -448 0
-450 400 0
-450 449 0
450 -400 -449 0
-451 396 0
-451 450 0
451 -396 -450 0
-452 392 0
-452 451 0
452 -392 -451 0
-453 385 0
-453 452 0
453 -385 -452 0
-454 381 0
-454 453 0
454 -381 -453 0
-455 377 0
-455 454 0
455 -377 -454 0
-456 373 0
-456 455 0
456 -373 -455 0
-457 357 0
-457 456 0
457 -357 -456 0
-458 353 0
-458 457 0
458 -353 -457 0
-459 349 0
-459 458 0
459 -349 -458 0
-460 345 0
-460 459 0
460 -345 -459 0
-461 338 0
-461 460 0
461 -338 -460 0
-462 334 0
-462 461 0
462 -334 -461 0
-463 330 0
-463 462 0
463 -330 -462 0
-464 326 0
-464 463 0
464 -326 -463 0
-465 318 0
-465 464 0
465 -318 -464 0
-466 314 0
-466 465 0
466 -314 -465 0
-467 310 0
-467 466 0
467 -310 -466 0
-468 306 0
-468 467 0
468 -306 -467 0
-469 299 0
-469 468 0
469 -299 -468 0
-470 295 0
-470 469 0
470 -295 -469 0
-471 291 0
-471 470 0
471 -291 -470 0
-472 287 0
-472 471 0
472 -287 -471 0
-472 0
